the best solution's fitness is 
88083.2
the time when getting the optimal solution is 
5749
the sequence of best solution is following
0 2387 2385 2384 2383 2382 2381 2380 2369 2368 2365 2364 2363 2361 2360 2359 2358 2357 2356 2160 2159 2157 2166 2170 2175 2243 2244 2233 2235 2234 2242 2184 2182 2181 2180 2145 2144 2143 2142 2141 2140 2139 2138 2137 2136 2135 2134 2133 2132 2131 2130 2129 1606 2128 2127 2126 2125 2124 2123 2122 2121 2120 2119 2118 2112 2113 2077 2078 2079 2081 2080 2086 2088 2089 2090 2091 2092 2093 2094 2095 2096 1921 1922 1923 1924 1925 1926 1927 1928 1929 1930 1931 1932 1933 1934 1960 1961 1962 1963 1964 1965 1966 1967 1989 1990 1991 1992 1996 1997 1998 1999 2001 2000 2006 2007 2008 2009 2010 2014 2015 2016 2017 2018 2019 2020 2021 2027 2028 2013 2012 2011 2030 2031 2032 2036 2037 2038 2040 2042 2043 2044 1648 1649 1650 1651 1652 1653 1654 1655 1656 1657 1658 1659 1660 1645 1661 1662 1663 1664 1665 1666 1667 1668 1669 1670 1671 1635 1634 1672 1673 1674 1677 1678 1679 1680 1681 1682 869 868 866 864 863 861 862 1697 1698 1699 1700 1701 1702 849 850 851 852 853 854 855 856 857 858 860 859 824 825 828 829 835 833 834 836 837 838 766 765 767 774 775 776 780 779 778 777 757 756 755 754 753 750 749 748 747 746 745 744 743 736 735 733 731 732 734 741 742 600 599 598 597 589 587 586 590 591 592 593 937 938 939 936 935 934 933 932 931 929 928 797 796 795 794 793 792 791 790 789 788 787 786 785 784 783 782 781 808 807 806 805 804 803 802 814 815 816 817 818 890 891 892 995 996 997 1005 1006 1007 1008 1009 1010 1560 1561 1562 1563 1564 1565 1570 1571 1572 1573 1574 1575 1576 1577 1578 1579 1580 1581 1582 1583 1584 1589 1591 1621 1620 1619 1618 1617 1616 1615 1614 1613 1611 1612 2053 2055 2056 2057 2058 2059 2060 2061 2062 2063 2064 2065 2066 2067 2068 1610 1609 1608 1592 1593 1594 1595 1596 1597 1598 1599 2199 2200 2201 2202 2203 2204 2206 2205 2212 2210 2218 2219 2220 1523 1522 1487 1489 1490 1491 1492 1497 1498 1496 1495 1494 1493 1467 1481 1477 1476 1468 1466 1465 1464 1430 1429 1428 1426 1427 1419 1418 1417 1413 1412 1406 1402 1359 1358 1279 1357 1356 1355 1354 1353 1348 1317 1318 1319 1320 1321 2311 2312 2313 2296 2295 2294 2291 2293 2292 2269 2270 2271 2272 2290 2287 2286 2285 2331 2332 2333 2330 2329 
0 2391 2390 2389 2388 2386 2378 2377 2371 2372 2338 2339 2345 2344 2343 2348 2349 2281 2282 2280 2279 2278 2162 2163 2158 2156 2155 2154 2153 2152 2151 2150 2149 2148 2147 2146 2179 2178 2177 2176 2183 2186 2241 2240 2239 2238 2237 2236 2232 2250 2249 2245 2246 2247 2248 2251 2227 2226 2225 2224 2223 2222 2221 1525 1526 1527 1528 1533 1536 1569 1568 1567 1566 878 877 876 875 874 873 872 871 870 867 865 1688 1689 1695 1696 1694 1693 1692 1691 1690 1687 1686 1685 1684 1683 1676 1675 1720 1719 1718 1717 1724 1723 1721 1722 1725 1726 1727 1728 1729 1730 1731 1732 1733 1734 1715 1714 1716 1713 1712 1711 1710 1709 1708 1707 1706 1705 1703 1704 848 843 844 845 668 669 670 671 675 674 673 677 676 678 679 680 681 682 683 684 685 686 687 688 689 690 691 692 694 693 698 697 699 700 701 702 703 705 704 706 707 708 709 710 711 712 737 738 739 740 601 602 603 604 606 605 607 608 610 611 612 613 614 615 616 619 618 617 560 559 561 558 557 562 564 563 556 555 554 553 552 551 550 549 548 547 546 545 544 543 542 541 540 539 538 537 536 535 534 533 532 531 530 529 528 527 526 525 524 523 522 521 520 519 518 517 516 515 513 514 565 566 567 568 569 570 572 571 511 512 510 509 508 507 506 505 504 503 502 501 500 499 498 497 496 495 494 493 492 491 490 489 488 487 486 485 484 483 482 481 480 479 478 477 476 475 474 473 472 471 470 469 468 467 466 465 464 463 462 461 460 459 458 457 456 455 454 453 452 451 450 449 448 447 446 445 444 443 442 441 440 416 415 413 414 418 417 439 438 437 436 435 434 433 432 431 430 429 428 427 426 425 424 423 422 421 420 419 963 962 961 960 959 958 957 956 955 954 953 952 951 950 949 944 943 942 940 941 945 948 947 946 930 926 927 925 924 923 922 921 920 919 918 917 916 915 914 913 912 911 910 909 908 907 902 903 904 905 906 992 991 990 989 988 987 993 994 893 894 895 896 897 898 899 900 901 798 799 800 801 813 812 811 810 809 770 771 772 773 768 769 832 831 830 827 826 821 820 819 822 823 888 889 887 886 885 884 883 882 881 880 879 1559 1558 1557 1556 1555 1546 1545 1544 1543 1541 1540 1539 1478 1479 1480 1482 1483 1484 1485 1486 1488 1517 1516 1515 1514 1513 1512 1511 1508 2265 2266 2267 2273 2274 2275 2276 2277 2289 2288 2283 2284 2342 2341 2340 2337 2336 2335 2334 2373 2374 2375 2376 1 
0 2379 2370 2367 2366 2362 2346 2347 2351 2350 2352 2353 2354 2355 2161 2164 2165 2167 2168 2169 2171 2172 2173 2174 2185 2187 2188 2189 2190 2191 2192 2198 2197 2196 2193 2194 2195 1600 1601 1602 1603 1604 1605 1607 2072 2073 2117 2116 2115 2114 2076 2075 2074 2071 2070 2069 2054 2052 2051 2050 2049 2048 2047 2046 2045 2035 2034 2033 2029 2024 2025 2026 2023 2022 2083 2082 2084 2085 2087 2103 2107 2108 2111 2110 2109 2106 2105 2104 2102 2101 2100 2099 2098 2097 1920 1919 1918 1917 1916 1915 1914 1913 1912 1911 1910 1908 1909 1907 1906 1939 1938 1937 1936 1935 1943 1944 1942 1941 1940 1905 1904 1903 1902 1901 1900 1899 1898 1897 1896 1895 1894 1893 1892 1891 1890 1889 1888 1887 1886 1885 1884 1883 1882 1881 1880 1879 1878 1877 1876 1973 1972 1971 1970 1954 1953 1952 1951 1950 1949 1948 1947 1945 1946 1959 1958 1957 1956 1955 1968 1969 1982 1983 1986 1988 1987 1985 1984 1981 1980 1979 1978 1977 1976 1975 1974 1875 1874 1873 1872 1871 1870 1869 1868 1867 1866 1865 1864 1863 1862 1861 1860 1859 1858 1857 1856 1855 1854 1837 1838 1836 1835 1834 1833 1832 1831 1830 1829 1828 1827 1826 1825 1824 1823 1822 1821 1820 1819 1818 1817 1816 1815 1814 1813 1812 1811 1810 1809 1808 1807 1806 1805 1804 1803 1802 1801 1800 1799 1798 1797 1796 1795 1794 1793 1792 1791 1790 1789 1788 1787 1786 1785 1784 1783 1782 1781 1780 1779 1778 1777 1776 1775 1774 1773 1772 1771 1770 1769 1768 1767 1766 1765 1764 1763 1762 1761 1760 1759 1758 1757 1756 1755 1754 1753 1752 1751 1750 1749 1748 1747 1746 1745 1744 1743 1742 667 666 665 672 664 663 662 661 660 659 658 657 656 655 654 653 652 651 650 649 648 647 646 645 644 643 642 641 640 639 638 637 636 695 696 635 634 633 632 631 630 629 628 627 626 625 624 623 622 621 620 721 722 725 724 723 720 719 718 717 716 715 713 714 730 729 728 727 726 609 575 574 573 576 577 578 579 580 581 582 583 585 584 588 596 595 594 751 752 758 759 760 761 762 763 764 839 840 841 842 847 846 1741 1740 1739 1738 1737 1736 1735 1845 1846 1844 1843 1839 1840 1841 1842 1850 1849 1847 1848 1851 1852 1853 1993 1994 1995 2002 2003 2004 2005 2039 2041 1647 1646 1644 1643 1642 1641 1640 1639 1638 1637 1636 1633 1632 1631 1630 1629 1628 1627 1626 1625 1624 1623 1622 1590 1588 1587 1586 1585 2213 2214 2215 2211 2209 2208 2207 2231 2230 2229 2228 2252 2253 2259 2261 2262 2268 2300 2299 2298 2297 2314 2316 2315 2323 2324 2325 2326 2328 2 
0 8 9 10 21 22 23 24 25 26 27 28 29 31 32 1282 1280 1281 46 47 48 59 58 57 56 55 54 65 66 67 68 69 70 71 72 73 74 75 76 77 78 90 91 92 93 94 95 104 106 107 108 109 110 111 112 113 114 115 116 117 118 119 120 121 122 124 123 220 221 218 217 222 223 224 225 226 214 227 228 229 230 231 232 233 234 235 236 237 238 244 245 248 249 250 251 252 247 246 263 264 265 266 267 268 269 270 271 272 273 274 275 276 277 278 279 280 281 282 283 284 306 307 308 309 310 311 312 313 314 315 317 316 305 291 290 287 285 286 288 289 292 293 294 295 296 297 298 299 397 396 395 394 393 392 391 390 389 388 387 386 385 324 326 325 384 383 382 381 379 380 972 973 974 975 976 977 978 979 980 981 982 983 984 985 986 376 375 374 373 372 371 370 369 367 366 368 333 335 336 337 338 339 340 341 342 343 344 345 346 347 348 356 355 349 350 351 352 1148 1149 1150 1147 1146 1145 1142 1140 1139 1138 1137 1108 1109 1110 1107 1106 1103 1104 1105 1111 1112 1113 1118 1119 1120 1121 1123 1122 1071 1072 1073 1080 1079 1078 1077 1076 1075 1074 1070 1069 1068 1067 1066 1065 1064 1063 1058 1057 1059 1060 1061 1062 1027 1453 1452 1449 1448 1447 1446 1444 1445 1458 1472 1473 1474 1475 1471 1470 1469 1459 1460 1461 1463 1462 1437 1438 1439 1436 1435 1431 1433 1432 1038 1041 1042 1040 1039 1047 1048 1051 1049 1050 1046 1045 1044 1043 1237 1236 1235 1234 1233 1232 1231 1163 1164 1165 1171 1170 1168 1169 1172 1157 1156 1155 1174 1175 1173 1177 1176 1180 1181 1182 1183 1184 1186 1187 1189 1188 169 168 184 185 186 187 188 189 190 191 192 193 194 199 200 198 195 196 197 132 131 133 134 135 146 147 148 149 150 151 152 154 153 156 155 1203 1204 1205 1206 1207 1213 1214 1215 1216 1217 1218 1220 1221 1248 1246 1247 1249 1250 1251 1252 1253 1256 1257 1258 1259 1260 1261 1262 1263 1264 1265 1266 1271 1272 1273 1274 1275 1276 1278 1277 1374 1373 1360 1361 1371 1370 1369 1368 1367 1366 1393 1392 1391 1390 1389 1397 1396 1395 1394 1398 1400 1405 1403 1404 1407 1409 1410 1411 1408 1335 1336 1341 1342 1343 1344 1345 1346 1347 1349 1352 1351 1350 1315 1316 1314 1313 1311 1309 2319 2318 2317 2320 2321 2322 1308 1307 1304 1303 1302 1301 1300 1299 1298 1297 1296 18 17 16 15 4 5 
0 3 2327 1305 1306 1310 1312 2310 2309 2308 2307 2306 2305 2304 2302 2301 2303 1328 1327 1326 1325 1324 1323 1322 1338 1339 1340 1337 1333 1334 1332 1331 1330 1329 1506 1505 1504 1503 1499 1500 1501 1502 1510 1509 1507 2264 2263 2260 2258 2254 2256 2257 2255 1518 1519 1520 1521 1524 2217 2216 1529 1530 1531 1532 1534 1535 1538 1537 1542 1547 1548 1549 1554 1553 1552 1550 1551 1454 1455 1457 1456 1451 1450 1443 1442 1441 1440 1434 1035 1034 1033 1032 1031 1030 1029 1028 1026 1025 1024 1023 1022 1021 1020 1019 1018 1017 1016 1015 1014 1013 1012 1011 1002 1003 1004 998 999 1000 1001 1081 1082 1083 1084 1085 1086 1088 1087 1094 1093 1092 1091 1089 1090 1100 1101 1102 1099 1098 1097 1095 1096 377 378 971 970 969 968 967 966 965 964 406 412 411 410 409 408 407 405 404 403 402 401 400 399 398 300 301 302 303 304 318 319 320 321 323 322 327 328 329 330 331 332 334 365 364 363 362 361 360 359 358 357 354 353 175 176 177 178 180 179 183 182 181 254 253 255 256 257 258 259 260 261 262 243 242 241 240 239 212 213 215 216 209 210 211 208 207 219 206 205 204 125 126 203 202 201 130 129 128 127 105 103 102 101 100 99 98 97 96 89 88 87 86 85 84 83 82 81 80 79 142 143 144 145 141 140 139 138 137 136 160 161 162 163 164 165 166 167 170 171 172 173 174 1185 1179 1178 1196 1195 1194 1193 1190 1191 1192 158 159 157 1201 1200 1202 1199 1198 1197 1167 1166 1162 1161 1160 1159 1158 1154 1153 1152 1151 1144 1143 1141 1136 1135 1134 1133 1130 1129 1128 1127 1131 1132 1114 1115 1117 1116 1124 1126 1125 1056 1055 1054 1053 1052 1036 1037 1425 1424 1423 1422 1421 1420 1416 1415 1414 1399 1401 1365 1364 1363 1362 1372 1375 1376 1377 1378 1379 1380 1381 1382 1383 1384 1385 1387 1388 1386 1238 1239 1240 1241 1242 1243 1245 1244 1228 1227 1226 1229 1230 1225 1224 1223 1222 1219 1254 1255 1212 1211 1208 1209 1210 63 64 62 61 60 1267 1270 1269 1268 49 50 51 52 53 45 44 43 42 41 40 39 38 37 36 35 34 33 1283 1284 1285 1286 1287 1288 1289 1290 1291 1292 1293 1294 1295 30 19 20 14 13 12 11 6 7 

the actuall costs is 88083.2
the using frequency of each operators in EAX is following
the percentage of or-insert is 0.505509
the percentage of or-swap is 0.494491
all percentage of each operator is following 
0.475358  0.0229267  0.00376064  0.00211124  0.00112159  0.000197928  3.29881e-05  
0.231444  0.0392888  0.0106222  0.00313387  0.00108861  0.000989642  0.000329881  
0.0214422  0.0346704  0.0135911  0.00659761  0.00286996  0.00135251  0.000659761  
0.00488223  0.013756  0.0117437  0.00659761  0.00349673  0.002771  0.00174837  
0.00135251  0.00643267  0.00679554  0.00646566  0.00418948  0.00280398  0.00270502  
0.000758725  0.00283697  0.00300191  0.00471729  0.00412351  0.00336478  0.00399156  
0.00237514  0.00171538  0.00465132  0.00402454  0.00504717  0.00481626  0.0052451  


